
(set-logic ALL) 

(declare-datatype MyList ((Nil) (Cons (head Real) (tail MyList)) )) 
(declare-fun l0 () MyList) 
(declare-fun l1 () MyList) 
(declare-fun l2 () MyList) 
(declare-fun l3 () MyList) 
(declare-fun i0 () Real) 
(declare-fun i1 () Real) 
(assert (is-Cons Nil) )
(assert (= l2 l0) )
(assert (or (= l1 l3) (is-Nil l2)) )
(assert (= l3 Nil) )
(assert (is-Cons Nil) )
(assert (= l1 Nil) )
(assert (= l0 Nil) )
(assert (and (= l1 Nil) (= l0 l3)) )
(check-sat)
